
Gurobi 10.0.1 (linux64) logging started Sun Nov 26 15:37:21 2023

Set parameter LogFile to value "ArtificialInstance/ExperimentV2/S2T3K2/BaRo/gurobi1.txt"
Gurobi Optimizer version 10.0.1 build v10.0.1rc0 (linux64)

CPU model: AMD EPYC 7H12 64-Core Processor, instruction set [SSE2|AVX|AVX2]
Thread count: 128 physical cores, 128 logical processors, using up to 32 threads

Academic license 656792 - for non-commercial use only - registered to b.___@student.vu.nl
Optimize a model with 1422 rows, 2161 columns and 7362 nonzeros
Model fingerprint: 0x39090a6b
Variable types: 1 continuous, 2160 integer (2160 binary)
Coefficient statistics:
  Matrix range     [1e+00, 4e+01]
  Objective range  [1e+00, 2e+01]
  Bounds range     [1e+00, 1e+00]
  RHS range        [1e+00, 1e+00]
Found heuristic solution: objective 460.8402386
Presolve time: 0.01s
Presolved: 1422 rows, 2161 columns, 7362 nonzeros
Variable types: 1 continuous, 2160 integer (2160 binary)

Root relaxation: objective 3.458250e+01, 1116 iterations, 0.03 seconds (0.02 work units)

    Nodes    |    Current Node    |     Objective Bounds      |     Work
 Expl Unexpl |  Obj  Depth IntInf | Incumbent    BestBd   Gap | It/Node Time

     0     0   34.58250    0  210  460.84024   34.58250  92.5%     -    0s
H    0     0                     111.8930004   34.58250  69.1%     -    0s
H    0     0                      81.0889934   34.58250  57.4%     -    0s
H    0     0                      57.9862414   34.58250  40.4%     -    0s
     0     0   40.13038    0  277   57.98624   40.13038  30.8%     -    0s
H    0     0                      54.2554852   40.13038  26.0%     -    0s
     0     0   42.74540    0  360   54.25549   42.74540  21.2%     -    0s
     0     0   42.74598    0  361   54.25549   42.74598  21.2%     -    0s
H    0     0                      52.2440668   42.74598  18.2%     -    0s
     0     0   43.92035    0  342   52.24407   43.92035  15.9%     -    0s
H    0     0                      51.4746057   43.92035  14.7%     -    0s
     0     0   44.03801    0  305   51.47461   44.03801  14.4%     -    0s
     0     0   44.09540    0  403   51.47461   44.09540  14.3%     -    0s
     0     0   44.09540    0  404   51.47461   44.09540  14.3%     -    0s
     0     0   45.31028    0  370   51.47461   45.31028  12.0%     -    0s
H    0     0                      51.4617219   45.51619  11.6%     -    0s
     0     0   45.51619    0  329   51.46172   45.51619  11.6%     -    0s
     0     0   45.51619    0  330   51.46172   45.51619  11.6%     -    0s
     0     0   45.85816    0  451   51.46172   45.85816  10.9%     -    0s
     0     0   45.86536    0  405   51.46172   45.86536  10.9%     -    0s
     0     0   45.93391    0  467   51.46172   45.93391  10.7%     -    0s
     0     0   45.94075    0  477   51.46172   45.94075  10.7%     -    0s
     0     0   45.94075    0  483   51.46172   45.94075  10.7%     -    0s
     0     0   46.02419    0  470   51.46172   46.02419  10.6%     -    0s
     0     0   46.03577    0  475   51.46172   46.03577  10.5%     -    0s
     0     0   46.04197    0  469   51.46172   46.04197  10.5%     -    0s
     0     0   46.04197    0  470   51.46172   46.04197  10.5%     -    0s
     0     0   46.43315    0  457   51.46172   46.43315  9.77%     -    0s
     0     0   46.44594    0  476   51.46172   46.44594  9.75%     -    0s
     0     0   46.47231    0  453   51.46172   46.47231  9.70%     -    0s
     0     0   47.69038    0  460   51.46172   47.69038  7.33%     -    0s
     0     0   48.33343    0  463   51.46172   48.33343  6.08%     -    0s
     0     0   48.82757    0  479   51.46172   48.82757  5.12%     -    0s
     0     0   48.82757    0  481   51.46172   48.82757  5.12%     -    0s

Cutting planes:
  Gomory: 8
  Zero half: 62
  RLT: 60

Explored 1 nodes (6656 simplex iterations) in 0.88 seconds (0.58 work units)
Thread count was 32 (of 128 available processors)

Solution count 8: 51.4617 51.4746 52.2441 ... 460.84

Optimal solution found (tolerance 1.00e-04)
Best objective 5.146172189898e+01, best bound 5.146172189898e+01, gap 0.0000%
